% Auto-generated by scripts/generate_dzn.py
% problem_type   = polyominoes
% instance       = polyominoes_6
% source_json    = instances_json/0_low_blowup/polyominoes_6.json
% blowup         = 0.7309160305343512
% representation = DFA

mode = 0;

size = 6;
tiles = 4;
n_expressions = 4;
Q = 159;
S = 5;
q0 = [1, 1, 1, 1];
F = [{78}, {66}, {3}, {158}];
weights = [1, 8, 4, 5, 3, 7, 1, 5, 9, 4, 4, 1, 10, 4, 9, 3, 9, 1, 10, 8, 6, 2, 4, 3, 6, 8, 5, 2, 7, 3, 8, 6, 7, 7, 3, 5];
d_dfa = array3d(1..4, 1..159, 1..5, [
  % k = 1
    2, 1, 1, 1, 1,
    4, 3, 3, 3, 3,
    143, 5, 5, 5, 5,
    6, 143, 143, 143, 143,
    8, 7, 7, 7, 7,
    10, 9, 9, 9, 9,
    143, 11, 11, 11, 11,
    12, 143, 143, 143, 143,
    143, 13, 13, 13, 13,
    14, 143, 143, 143, 143,
    143, 15, 15, 15, 15,
    16, 143, 143, 143, 143,
    143, 17, 17, 17, 17,
    18, 143, 143, 143, 143,
    20, 19, 19, 19, 19,
    143, 21, 21, 21, 21,
    143, 22, 22, 22, 22,
    143, 23, 23, 23, 23,
    24, 143, 143, 143, 143,
    25, 143, 143, 143, 143,
    26, 143, 143, 143, 143,
    28, 27, 27, 27, 27,
    30, 29, 29, 29, 29,
    32, 31, 31, 31, 31,
    143, 33, 33, 33, 33,
    143, 34, 34, 34, 34,
    143, 35, 35, 35, 35,
    143, 36, 36, 36, 36,
    37, 143, 143, 143, 143,
    143, 38, 38, 38, 38,
    39, 143, 143, 143, 143,
    143, 40, 40, 40, 40,
    143, 41, 41, 41, 41,
    42, 143, 143, 143, 143,
    43, 143, 143, 143, 143,
    143, 44, 44, 44, 44,
    45, 143, 143, 143, 143,
    46, 143, 143, 143, 143,
    47, 143, 143, 143, 143,
    143, 48, 48, 48, 48,
    143, 49, 49, 49, 49,
    50, 143, 143, 143, 143,
    143, 51, 51, 51, 51,
    143, 52, 52, 52, 52,
    53, 143, 143, 143, 143,
    54, 143, 143, 143, 143,
    55, 143, 143, 143, 143,
    143, 56, 56, 56, 56,
    143, 57, 57, 57, 57,
    58, 143, 143, 143, 143,
    143, 59, 59, 59, 59,
    143, 60, 60, 60, 60,
    143, 61, 61, 61, 61,
    62, 143, 143, 143, 143,
    143, 26, 26, 26, 26,
    143, 63, 63, 63, 63,
    143, 64, 64, 64, 64,
    65, 143, 143, 143, 143,
    143, 66, 66, 66, 66,
    143, 67, 67, 67, 67,
    68, 143, 143, 143, 143,
    143, 69, 69, 69, 69,
    143, 70, 70, 70, 70,
    71, 143, 143, 143, 143,
    72, 143, 143, 143, 143,
    143, 73, 73, 73, 73,
    143, 74, 74, 74, 74,
    143, 75, 75, 75, 75,
    143, 72, 72, 72, 72,
    76, 143, 143, 143, 143,
    77, 143, 143, 143, 143,
    78, 143, 143, 143, 143,
    143, 79, 79, 79, 79,
    80, 143, 143, 143, 143,
    143, 81, 81, 81, 81,
    82, 143, 143, 143, 143,
    143, 83, 83, 83, 83,
    143, 78, 78, 78, 78,
    84, 143, 143, 143, 143,
    85, 143, 143, 143, 143,
    143, 86, 86, 86, 86,
    143, 87, 87, 87, 87,
    143, 88, 88, 88, 88,
    89, 143, 143, 143, 143,
    143, 90, 90, 90, 90,
    143, 62, 62, 62, 62,
    143, 91, 91, 91, 91,
    143, 92, 92, 92, 92,
    143, 93, 93, 93, 93,
    143, 94, 94, 94, 94,
    143, 95, 95, 95, 95,
    143, 96, 96, 96, 96,
    143, 97, 97, 97, 97,
    143, 98, 98, 98, 98,
    143, 99, 99, 99, 99,
    143, 100, 100, 100, 100,
    143, 101, 101, 101, 101,
    143, 102, 102, 102, 102,
    143, 103, 103, 103, 103,
    104, 143, 143, 143, 143,
    143, 105, 105, 105, 105,
    143, 106, 106, 106, 106,
    107, 143, 143, 143, 143,
    108, 143, 143, 143, 143,
    143, 109, 109, 109, 109,
    110, 143, 143, 143, 143,
    111, 143, 143, 143, 143,
    143, 112, 112, 112, 112,
    113, 143, 143, 143, 143,
    114, 143, 143, 143, 143,
    143, 115, 115, 115, 115,
    143, 116, 116, 116, 116,
    117, 143, 143, 143, 143,
    143, 118, 118, 118, 118,
    143, 119, 119, 119, 119,
    143, 120, 120, 120, 120,
    143, 121, 121, 121, 121,
    143, 122, 122, 122, 122,
    143, 123, 123, 123, 123,
    143, 124, 124, 124, 124,
    143, 125, 125, 125, 125,
    143, 126, 126, 126, 126,
    143, 127, 127, 127, 127,
    143, 128, 128, 128, 128,
    143, 129, 129, 129, 129,
    143, 130, 130, 130, 130,
    143, 131, 131, 131, 131,
    143, 132, 132, 132, 132,
    143, 133, 133, 133, 133,
    143, 134, 134, 134, 134,
    135, 143, 143, 143, 143,
    136, 143, 143, 143, 143,
    143, 137, 137, 137, 137,
    138, 143, 143, 143, 143,
    143, 139, 139, 139, 139,
    143, 140, 140, 140, 140,
    61, 143, 143, 143, 143,
    75, 143, 143, 143, 143,
    143, 136, 136, 136, 136,
    143, 141, 141, 141, 141,
    143, 142, 142, 142, 142,
    143, 58, 58, 58, 58,
    143, 143, 143, 143, 143,
    0, 0, 0, 0, 0,
    0, 0, 0, 0, 0,
    0, 0, 0, 0, 0,
    0, 0, 0, 0, 0,
    0, 0, 0, 0, 0,
    0, 0, 0, 0, 0,
    0, 0, 0, 0, 0,
    0, 0, 0, 0, 0,
    0, 0, 0, 0, 0,
    0, 0, 0, 0, 0,
    0, 0, 0, 0, 0,
    0, 0, 0, 0, 0,
    0, 0, 0, 0, 0,
    0, 0, 0, 0, 0,
    0, 0, 0, 0, 0,
    0, 0, 0, 0, 0,

  % k = 2
    1, 2, 1, 1, 1,
    3, 4, 3, 3, 3,
    5, 71, 5, 5, 5,
    6, 7, 6, 6, 6,
    8, 71, 8, 8, 8,
    9, 71, 9, 9, 9,
    71, 10, 71, 71, 71,
    11, 71, 11, 11, 11,
    12, 71, 12, 12, 12,
    13, 71, 13, 13, 13,
    14, 15, 14, 14, 14,
    16, 71, 16, 16, 16,
    17, 71, 17, 17, 17,
    18, 71, 18, 18, 18,
    71, 19, 71, 71, 71,
    20, 21, 20, 20, 20,
    22, 71, 22, 22, 22,
    71, 23, 71, 71, 71,
    71, 24, 71, 71, 71,
    71, 25, 71, 71, 71,
    71, 26, 71, 71, 71,
    27, 28, 27, 27, 27,
    71, 29, 71, 71, 71,
    30, 71, 30, 30, 30,
    71, 31, 71, 71, 71,
    71, 32, 71, 71, 71,
    71, 33, 71, 71, 71,
    71, 34, 71, 71, 71,
    71, 35, 71, 71, 71,
    36, 71, 36, 36, 36,
    71, 37, 71, 71, 71,
    38, 71, 38, 38, 38,
    71, 39, 71, 71, 71,
    71, 40, 71, 71, 71,
    41, 71, 41, 41, 41,
    42, 71, 42, 42, 42,
    43, 71, 43, 43, 43,
    44, 71, 44, 44, 44,
    71, 45, 71, 71, 71,
    45, 71, 45, 45, 45,
    46, 71, 46, 46, 46,
    47, 71, 47, 47, 47,
    48, 71, 48, 48, 48,
    49, 71, 49, 49, 49,
    50, 71, 50, 50, 50,
    51, 71, 51, 51, 51,
    71, 28, 71, 71, 71,
    52, 71, 52, 52, 52,
    53, 71, 53, 53, 53,
    54, 71, 54, 54, 54,
    27, 71, 27, 27, 27,
    55, 56, 55, 55, 55,
    71, 57, 71, 71, 71,
    58, 71, 58, 58, 58,
    71, 59, 71, 71, 71,
    71, 60, 71, 71, 71,
    71, 61, 71, 71, 71,
    60, 71, 60, 60, 60,
    71, 62, 71, 71, 71,
    71, 63, 71, 71, 71,
    71, 64, 71, 71, 71,
    71, 65, 71, 71, 71,
    71, 66, 71, 71, 71,
    67, 66, 67, 67, 67,
    68, 71, 68, 68, 68,
    66, 71, 66, 66, 66,
    65, 71, 65, 65, 65,
    69, 71, 69, 69, 69,
    70, 71, 70, 70, 70,
    63, 71, 63, 63, 63,
    71, 71, 71, 71, 71,
    0, 0, 0, 0, 0,
    0, 0, 0, 0, 0,
    0, 0, 0, 0, 0,
    0, 0, 0, 0, 0,
    0, 0, 0, 0, 0,
    0, 0, 0, 0, 0,
    0, 0, 0, 0, 0,
    0, 0, 0, 0, 0,
    0, 0, 0, 0, 0,
    0, 0, 0, 0, 0,
    0, 0, 0, 0, 0,
    0, 0, 0, 0, 0,
    0, 0, 0, 0, 0,
    0, 0, 0, 0, 0,
    0, 0, 0, 0, 0,
    0, 0, 0, 0, 0,
    0, 0, 0, 0, 0,
    0, 0, 0, 0, 0,
    0, 0, 0, 0, 0,
    0, 0, 0, 0, 0,
    0, 0, 0, 0, 0,
    0, 0, 0, 0, 0,
    0, 0, 0, 0, 0,
    0, 0, 0, 0, 0,
    0, 0, 0, 0, 0,
    0, 0, 0, 0, 0,
    0, 0, 0, 0, 0,
    0, 0, 0, 0, 0,
    0, 0, 0, 0, 0,
    0, 0, 0, 0, 0,
    0, 0, 0, 0, 0,
    0, 0, 0, 0, 0,
    0, 0, 0, 0, 0,
    0, 0, 0, 0, 0,
    0, 0, 0, 0, 0,
    0, 0, 0, 0, 0,
    0, 0, 0, 0, 0,
    0, 0, 0, 0, 0,
    0, 0, 0, 0, 0,
    0, 0, 0, 0, 0,
    0, 0, 0, 0, 0,
    0, 0, 0, 0, 0,
    0, 0, 0, 0, 0,
    0, 0, 0, 0, 0,
    0, 0, 0, 0, 0,
    0, 0, 0, 0, 0,
    0, 0, 0, 0, 0,
    0, 0, 0, 0, 0,
    0, 0, 0, 0, 0,
    0, 0, 0, 0, 0,
    0, 0, 0, 0, 0,
    0, 0, 0, 0, 0,
    0, 0, 0, 0, 0,
    0, 0, 0, 0, 0,
    0, 0, 0, 0, 0,
    0, 0, 0, 0, 0,
    0, 0, 0, 0, 0,
    0, 0, 0, 0, 0,
    0, 0, 0, 0, 0,
    0, 0, 0, 0, 0,
    0, 0, 0, 0, 0,
    0, 0, 0, 0, 0,
    0, 0, 0, 0, 0,
    0, 0, 0, 0, 0,
    0, 0, 0, 0, 0,
    0, 0, 0, 0, 0,
    0, 0, 0, 0, 0,
    0, 0, 0, 0, 0,
    0, 0, 0, 0, 0,
    0, 0, 0, 0, 0,
    0, 0, 0, 0, 0,
    0, 0, 0, 0, 0,
    0, 0, 0, 0, 0,
    0, 0, 0, 0, 0,
    0, 0, 0, 0, 0,
    0, 0, 0, 0, 0,
    0, 0, 0, 0, 0,
    0, 0, 0, 0, 0,
    0, 0, 0, 0, 0,
    0, 0, 0, 0, 0,
    0, 0, 0, 0, 0,
    0, 0, 0, 0, 0,
    0, 0, 0, 0, 0,
    0, 0, 0, 0, 0,
    0, 0, 0, 0, 0,
    0, 0, 0, 0, 0,
    0, 0, 0, 0, 0,
    0, 0, 0, 0, 0,

  % k = 3
    1, 1, 2, 1, 1,
    4, 4, 3, 4, 4,
    3, 3, 10, 3, 3,
    5, 5, 10, 5, 5,
    6, 6, 10, 6, 6,
    7, 7, 10, 7, 7,
    8, 8, 10, 8, 8,
    9, 9, 10, 9, 9,
    10, 10, 3, 10, 10,
    10, 10, 10, 10, 10,
    0, 0, 0, 0, 0,
    0, 0, 0, 0, 0,
    0, 0, 0, 0, 0,
    0, 0, 0, 0, 0,
    0, 0, 0, 0, 0,
    0, 0, 0, 0, 0,
    0, 0, 0, 0, 0,
    0, 0, 0, 0, 0,
    0, 0, 0, 0, 0,
    0, 0, 0, 0, 0,
    0, 0, 0, 0, 0,
    0, 0, 0, 0, 0,
    0, 0, 0, 0, 0,
    0, 0, 0, 0, 0,
    0, 0, 0, 0, 0,
    0, 0, 0, 0, 0,
    0, 0, 0, 0, 0,
    0, 0, 0, 0, 0,
    0, 0, 0, 0, 0,
    0, 0, 0, 0, 0,
    0, 0, 0, 0, 0,
    0, 0, 0, 0, 0,
    0, 0, 0, 0, 0,
    0, 0, 0, 0, 0,
    0, 0, 0, 0, 0,
    0, 0, 0, 0, 0,
    0, 0, 0, 0, 0,
    0, 0, 0, 0, 0,
    0, 0, 0, 0, 0,
    0, 0, 0, 0, 0,
    0, 0, 0, 0, 0,
    0, 0, 0, 0, 0,
    0, 0, 0, 0, 0,
    0, 0, 0, 0, 0,
    0, 0, 0, 0, 0,
    0, 0, 0, 0, 0,
    0, 0, 0, 0, 0,
    0, 0, 0, 0, 0,
    0, 0, 0, 0, 0,
    0, 0, 0, 0, 0,
    0, 0, 0, 0, 0,
    0, 0, 0, 0, 0,
    0, 0, 0, 0, 0,
    0, 0, 0, 0, 0,
    0, 0, 0, 0, 0,
    0, 0, 0, 0, 0,
    0, 0, 0, 0, 0,
    0, 0, 0, 0, 0,
    0, 0, 0, 0, 0,
    0, 0, 0, 0, 0,
    0, 0, 0, 0, 0,
    0, 0, 0, 0, 0,
    0, 0, 0, 0, 0,
    0, 0, 0, 0, 0,
    0, 0, 0, 0, 0,
    0, 0, 0, 0, 0,
    0, 0, 0, 0, 0,
    0, 0, 0, 0, 0,
    0, 0, 0, 0, 0,
    0, 0, 0, 0, 0,
    0, 0, 0, 0, 0,
    0, 0, 0, 0, 0,
    0, 0, 0, 0, 0,
    0, 0, 0, 0, 0,
    0, 0, 0, 0, 0,
    0, 0, 0, 0, 0,
    0, 0, 0, 0, 0,
    0, 0, 0, 0, 0,
    0, 0, 0, 0, 0,
    0, 0, 0, 0, 0,
    0, 0, 0, 0, 0,
    0, 0, 0, 0, 0,
    0, 0, 0, 0, 0,
    0, 0, 0, 0, 0,
    0, 0, 0, 0, 0,
    0, 0, 0, 0, 0,
    0, 0, 0, 0, 0,
    0, 0, 0, 0, 0,
    0, 0, 0, 0, 0,
    0, 0, 0, 0, 0,
    0, 0, 0, 0, 0,
    0, 0, 0, 0, 0,
    0, 0, 0, 0, 0,
    0, 0, 0, 0, 0,
    0, 0, 0, 0, 0,
    0, 0, 0, 0, 0,
    0, 0, 0, 0, 0,
    0, 0, 0, 0, 0,
    0, 0, 0, 0, 0,
    0, 0, 0, 0, 0,
    0, 0, 0, 0, 0,
    0, 0, 0, 0, 0,
    0, 0, 0, 0, 0,
    0, 0, 0, 0, 0,
    0, 0, 0, 0, 0,
    0, 0, 0, 0, 0,
    0, 0, 0, 0, 0,
    0, 0, 0, 0, 0,
    0, 0, 0, 0, 0,
    0, 0, 0, 0, 0,
    0, 0, 0, 0, 0,
    0, 0, 0, 0, 0,
    0, 0, 0, 0, 0,
    0, 0, 0, 0, 0,
    0, 0, 0, 0, 0,
    0, 0, 0, 0, 0,
    0, 0, 0, 0, 0,
    0, 0, 0, 0, 0,
    0, 0, 0, 0, 0,
    0, 0, 0, 0, 0,
    0, 0, 0, 0, 0,
    0, 0, 0, 0, 0,
    0, 0, 0, 0, 0,
    0, 0, 0, 0, 0,
    0, 0, 0, 0, 0,
    0, 0, 0, 0, 0,
    0, 0, 0, 0, 0,
    0, 0, 0, 0, 0,
    0, 0, 0, 0, 0,
    0, 0, 0, 0, 0,
    0, 0, 0, 0, 0,
    0, 0, 0, 0, 0,
    0, 0, 0, 0, 0,
    0, 0, 0, 0, 0,
    0, 0, 0, 0, 0,
    0, 0, 0, 0, 0,
    0, 0, 0, 0, 0,
    0, 0, 0, 0, 0,
    0, 0, 0, 0, 0,
    0, 0, 0, 0, 0,
    0, 0, 0, 0, 0,
    0, 0, 0, 0, 0,
    0, 0, 0, 0, 0,
    0, 0, 0, 0, 0,
    0, 0, 0, 0, 0,
    0, 0, 0, 0, 0,
    0, 0, 0, 0, 0,
    0, 0, 0, 0, 0,
    0, 0, 0, 0, 0,
    0, 0, 0, 0, 0,
    0, 0, 0, 0, 0,
    0, 0, 0, 0, 0,
    0, 0, 0, 0, 0,
    0, 0, 0, 0, 0,
    0, 0, 0, 0, 0,
    0, 0, 0, 0, 0,
    0, 0, 0, 0, 0,
    0, 0, 0, 0, 0,
    0, 0, 0, 0, 0,

  % k = 4
    1, 1, 1, 2, 1,
    3, 3, 3, 4, 3,
    5, 5, 5, 159, 5,
    159, 159, 159, 6, 159,
    7, 7, 7, 159, 7,
    159, 159, 159, 8, 159,
    9, 9, 9, 159, 9,
    159, 159, 159, 10, 159,
    11, 11, 11, 12, 11,
    13, 13, 13, 159, 13,
    14, 14, 14, 15, 14,
    159, 159, 159, 16, 159,
    17, 17, 17, 159, 17,
    159, 159, 159, 18, 159,
    159, 159, 159, 19, 159,
    159, 159, 159, 20, 159,
    21, 21, 21, 22, 21,
    23, 23, 23, 24, 23,
    25, 25, 25, 159, 25,
    159, 159, 159, 26, 159,
    27, 27, 27, 159, 27,
    159, 159, 159, 28, 159,
    29, 29, 29, 159, 29,
    30, 30, 30, 159, 30,
    31, 31, 31, 159, 31,
    159, 159, 159, 32, 159,
    159, 159, 159, 33, 159,
    159, 159, 159, 34, 159,
    35, 35, 35, 159, 35,
    36, 36, 36, 159, 36,
    37, 37, 37, 159, 37,
    38, 38, 38, 159, 38,
    159, 159, 159, 39, 159,
    40, 40, 40, 159, 40,
    41, 41, 41, 159, 41,
    42, 42, 42, 159, 42,
    43, 43, 43, 159, 43,
    44, 44, 44, 159, 44,
    159, 159, 159, 45, 159,
    46, 46, 46, 159, 46,
    47, 47, 47, 159, 47,
    48, 48, 48, 159, 48,
    49, 49, 49, 159, 49,
    50, 50, 50, 51, 50,
    52, 52, 52, 159, 52,
    53, 53, 53, 159, 53,
    54, 54, 54, 55, 54,
    159, 159, 159, 56, 159,
    159, 159, 159, 57, 159,
    159, 159, 159, 58, 159,
    159, 159, 159, 59, 159,
    60, 60, 60, 159, 60,
    159, 159, 159, 61, 159,
    159, 159, 159, 62, 159,
    159, 159, 159, 63, 159,
    159, 159, 159, 64, 159,
    159, 159, 159, 65, 159,
    159, 159, 159, 66, 159,
    159, 159, 159, 67, 159,
    68, 68, 68, 159, 68,
    159, 159, 159, 69, 159,
    159, 159, 159, 70, 159,
    71, 71, 71, 159, 71,
    159, 159, 159, 72, 159,
    159, 159, 159, 73, 159,
    159, 159, 159, 74, 159,
    159, 159, 159, 75, 159,
    76, 76, 76, 159, 76,
    159, 159, 159, 77, 159,
    78, 78, 78, 159, 78,
    79, 79, 79, 159, 79,
    80, 80, 80, 159, 80,
    81, 81, 81, 159, 81,
    159, 159, 159, 82, 159,
    83, 83, 83, 159, 83,
    84, 84, 84, 159, 84,
    85, 85, 85, 159, 85,
    86, 86, 86, 159, 86,
    87, 87, 87, 159, 87,
    88, 88, 88, 159, 88,
    89, 89, 89, 159, 89,
    90, 90, 90, 159, 90,
    91, 91, 91, 159, 91,
    159, 159, 159, 92, 159,
    93, 93, 93, 159, 93,
    94, 94, 94, 159, 94,
    159, 159, 159, 95, 159,
    96, 96, 96, 159, 96,
    97, 97, 97, 159, 97,
    98, 98, 98, 159, 98,
    99, 99, 99, 159, 99,
    159, 159, 159, 100, 159,
    101, 101, 101, 159, 101,
    102, 102, 102, 159, 102,
    159, 159, 159, 103, 159,
    104, 104, 104, 159, 104,
    159, 159, 159, 105, 159,
    106, 106, 106, 159, 106,
    159, 159, 159, 107, 159,
    159, 159, 159, 108, 159,
    109, 109, 109, 159, 109,
    110, 110, 110, 159, 110,
    159, 159, 159, 111, 159,
    112, 112, 112, 159, 112,
    159, 159, 159, 113, 159,
    114, 114, 114, 159, 114,
    159, 159, 159, 115, 159,
    116, 116, 116, 159, 116,
    117, 117, 117, 159, 117,
    159, 159, 159, 118, 159,
    159, 159, 159, 119, 159,
    159, 159, 159, 120, 159,
    159, 159, 159, 121, 159,
    122, 122, 122, 159, 122,
    123, 123, 123, 159, 123,
    124, 124, 124, 159, 124,
    159, 159, 159, 125, 159,
    159, 159, 159, 126, 159,
    127, 127, 127, 159, 127,
    159, 159, 159, 128, 159,
    129, 129, 129, 159, 129,
    159, 159, 159, 130, 159,
    131, 131, 131, 159, 131,
    132, 132, 132, 159, 132,
    159, 159, 159, 133, 159,
    159, 159, 159, 134, 159,
    135, 135, 135, 159, 135,
    159, 159, 159, 136, 159,
    137, 137, 137, 159, 137,
    159, 159, 159, 138, 159,
    139, 139, 139, 159, 139,
    140, 140, 140, 159, 140,
    141, 141, 141, 159, 141,
    159, 159, 159, 142, 159,
    159, 159, 159, 143, 159,
    144, 144, 144, 159, 144,
    159, 159, 159, 145, 159,
    115, 115, 115, 159, 115,
    146, 146, 146, 159, 146,
    159, 159, 159, 147, 159,
    148, 148, 148, 159, 148,
    119, 119, 119, 159, 119,
    159, 159, 159, 149, 159,
    121, 121, 121, 159, 121,
    159, 159, 159, 150, 159,
    147, 147, 147, 159, 147,
    159, 159, 159, 151, 159,
    152, 152, 152, 159, 152,
    159, 159, 159, 153, 159,
    159, 159, 159, 154, 159,
    133, 133, 133, 159, 133,
    155, 155, 155, 159, 155,
    159, 159, 159, 156, 159,
    159, 159, 159, 157, 159,
    157, 157, 157, 159, 157,
    159, 159, 159, 141, 159,
    159, 159, 159, 158, 159,
    158, 158, 158, 159, 158,
    159, 159, 159, 159, 159
]);
d_nfa = array3d(1..4, 1..159, 1..5, [
  % k = 1
    {}, {}, {}, {}, {},
    {}, {}, {}, {}, {},
    {}, {}, {}, {}, {},
    {}, {}, {}, {}, {},
    {}, {}, {}, {}, {},
    {}, {}, {}, {}, {},
    {}, {}, {}, {}, {},
    {}, {}, {}, {}, {},
    {}, {}, {}, {}, {},
    {}, {}, {}, {}, {},
    {}, {}, {}, {}, {},
    {}, {}, {}, {}, {},
    {}, {}, {}, {}, {},
    {}, {}, {}, {}, {},
    {}, {}, {}, {}, {},
    {}, {}, {}, {}, {},
    {}, {}, {}, {}, {},
    {}, {}, {}, {}, {},
    {}, {}, {}, {}, {},
    {}, {}, {}, {}, {},
    {}, {}, {}, {}, {},
    {}, {}, {}, {}, {},
    {}, {}, {}, {}, {},
    {}, {}, {}, {}, {},
    {}, {}, {}, {}, {},
    {}, {}, {}, {}, {},
    {}, {}, {}, {}, {},
    {}, {}, {}, {}, {},
    {}, {}, {}, {}, {},
    {}, {}, {}, {}, {},
    {}, {}, {}, {}, {},
    {}, {}, {}, {}, {},
    {}, {}, {}, {}, {},
    {}, {}, {}, {}, {},
    {}, {}, {}, {}, {},
    {}, {}, {}, {}, {},
    {}, {}, {}, {}, {},
    {}, {}, {}, {}, {},
    {}, {}, {}, {}, {},
    {}, {}, {}, {}, {},
    {}, {}, {}, {}, {},
    {}, {}, {}, {}, {},
    {}, {}, {}, {}, {},
    {}, {}, {}, {}, {},
    {}, {}, {}, {}, {},
    {}, {}, {}, {}, {},
    {}, {}, {}, {}, {},
    {}, {}, {}, {}, {},
    {}, {}, {}, {}, {},
    {}, {}, {}, {}, {},
    {}, {}, {}, {}, {},
    {}, {}, {}, {}, {},
    {}, {}, {}, {}, {},
    {}, {}, {}, {}, {},
    {}, {}, {}, {}, {},
    {}, {}, {}, {}, {},
    {}, {}, {}, {}, {},
    {}, {}, {}, {}, {},
    {}, {}, {}, {}, {},
    {}, {}, {}, {}, {},
    {}, {}, {}, {}, {},
    {}, {}, {}, {}, {},
    {}, {}, {}, {}, {},
    {}, {}, {}, {}, {},
    {}, {}, {}, {}, {},
    {}, {}, {}, {}, {},
    {}, {}, {}, {}, {},
    {}, {}, {}, {}, {},
    {}, {}, {}, {}, {},
    {}, {}, {}, {}, {},
    {}, {}, {}, {}, {},
    {}, {}, {}, {}, {},
    {}, {}, {}, {}, {},
    {}, {}, {}, {}, {},
    {}, {}, {}, {}, {},
    {}, {}, {}, {}, {},
    {}, {}, {}, {}, {},
    {}, {}, {}, {}, {},
    {}, {}, {}, {}, {},
    {}, {}, {}, {}, {},
    {}, {}, {}, {}, {},
    {}, {}, {}, {}, {},
    {}, {}, {}, {}, {},
    {}, {}, {}, {}, {},
    {}, {}, {}, {}, {},
    {}, {}, {}, {}, {},
    {}, {}, {}, {}, {},
    {}, {}, {}, {}, {},
    {}, {}, {}, {}, {},
    {}, {}, {}, {}, {},
    {}, {}, {}, {}, {},
    {}, {}, {}, {}, {},
    {}, {}, {}, {}, {},
    {}, {}, {}, {}, {},
    {}, {}, {}, {}, {},
    {}, {}, {}, {}, {},
    {}, {}, {}, {}, {},
    {}, {}, {}, {}, {},
    {}, {}, {}, {}, {},
    {}, {}, {}, {}, {},
    {}, {}, {}, {}, {},
    {}, {}, {}, {}, {},
    {}, {}, {}, {}, {},
    {}, {}, {}, {}, {},
    {}, {}, {}, {}, {},
    {}, {}, {}, {}, {},
    {}, {}, {}, {}, {},
    {}, {}, {}, {}, {},
    {}, {}, {}, {}, {},
    {}, {}, {}, {}, {},
    {}, {}, {}, {}, {},
    {}, {}, {}, {}, {},
    {}, {}, {}, {}, {},
    {}, {}, {}, {}, {},
    {}, {}, {}, {}, {},
    {}, {}, {}, {}, {},
    {}, {}, {}, {}, {},
    {}, {}, {}, {}, {},
    {}, {}, {}, {}, {},
    {}, {}, {}, {}, {},
    {}, {}, {}, {}, {},
    {}, {}, {}, {}, {},
    {}, {}, {}, {}, {},
    {}, {}, {}, {}, {},
    {}, {}, {}, {}, {},
    {}, {}, {}, {}, {},
    {}, {}, {}, {}, {},
    {}, {}, {}, {}, {},
    {}, {}, {}, {}, {},
    {}, {}, {}, {}, {},
    {}, {}, {}, {}, {},
    {}, {}, {}, {}, {},
    {}, {}, {}, {}, {},
    {}, {}, {}, {}, {},
    {}, {}, {}, {}, {},
    {}, {}, {}, {}, {},
    {}, {}, {}, {}, {},
    {}, {}, {}, {}, {},
    {}, {}, {}, {}, {},
    {}, {}, {}, {}, {},
    {}, {}, {}, {}, {},
    {}, {}, {}, {}, {},
    {}, {}, {}, {}, {},
    {}, {}, {}, {}, {},
    {}, {}, {}, {}, {},
    {}, {}, {}, {}, {},
    {}, {}, {}, {}, {},
    {}, {}, {}, {}, {},
    {}, {}, {}, {}, {},
    {}, {}, {}, {}, {},
    {}, {}, {}, {}, {},
    {}, {}, {}, {}, {},
    {}, {}, {}, {}, {},
    {}, {}, {}, {}, {},
    {}, {}, {}, {}, {},
    {}, {}, {}, {}, {},
    {}, {}, {}, {}, {},
    {}, {}, {}, {}, {},
    {}, {}, {}, {}, {},

  % k = 2
    {}, {}, {}, {}, {},
    {}, {}, {}, {}, {},
    {}, {}, {}, {}, {},
    {}, {}, {}, {}, {},
    {}, {}, {}, {}, {},
    {}, {}, {}, {}, {},
    {}, {}, {}, {}, {},
    {}, {}, {}, {}, {},
    {}, {}, {}, {}, {},
    {}, {}, {}, {}, {},
    {}, {}, {}, {}, {},
    {}, {}, {}, {}, {},
    {}, {}, {}, {}, {},
    {}, {}, {}, {}, {},
    {}, {}, {}, {}, {},
    {}, {}, {}, {}, {},
    {}, {}, {}, {}, {},
    {}, {}, {}, {}, {},
    {}, {}, {}, {}, {},
    {}, {}, {}, {}, {},
    {}, {}, {}, {}, {},
    {}, {}, {}, {}, {},
    {}, {}, {}, {}, {},
    {}, {}, {}, {}, {},
    {}, {}, {}, {}, {},
    {}, {}, {}, {}, {},
    {}, {}, {}, {}, {},
    {}, {}, {}, {}, {},
    {}, {}, {}, {}, {},
    {}, {}, {}, {}, {},
    {}, {}, {}, {}, {},
    {}, {}, {}, {}, {},
    {}, {}, {}, {}, {},
    {}, {}, {}, {}, {},
    {}, {}, {}, {}, {},
    {}, {}, {}, {}, {},
    {}, {}, {}, {}, {},
    {}, {}, {}, {}, {},
    {}, {}, {}, {}, {},
    {}, {}, {}, {}, {},
    {}, {}, {}, {}, {},
    {}, {}, {}, {}, {},
    {}, {}, {}, {}, {},
    {}, {}, {}, {}, {},
    {}, {}, {}, {}, {},
    {}, {}, {}, {}, {},
    {}, {}, {}, {}, {},
    {}, {}, {}, {}, {},
    {}, {}, {}, {}, {},
    {}, {}, {}, {}, {},
    {}, {}, {}, {}, {},
    {}, {}, {}, {}, {},
    {}, {}, {}, {}, {},
    {}, {}, {}, {}, {},
    {}, {}, {}, {}, {},
    {}, {}, {}, {}, {},
    {}, {}, {}, {}, {},
    {}, {}, {}, {}, {},
    {}, {}, {}, {}, {},
    {}, {}, {}, {}, {},
    {}, {}, {}, {}, {},
    {}, {}, {}, {}, {},
    {}, {}, {}, {}, {},
    {}, {}, {}, {}, {},
    {}, {}, {}, {}, {},
    {}, {}, {}, {}, {},
    {}, {}, {}, {}, {},
    {}, {}, {}, {}, {},
    {}, {}, {}, {}, {},
    {}, {}, {}, {}, {},
    {}, {}, {}, {}, {},
    {}, {}, {}, {}, {},
    {}, {}, {}, {}, {},
    {}, {}, {}, {}, {},
    {}, {}, {}, {}, {},
    {}, {}, {}, {}, {},
    {}, {}, {}, {}, {},
    {}, {}, {}, {}, {},
    {}, {}, {}, {}, {},
    {}, {}, {}, {}, {},
    {}, {}, {}, {}, {},
    {}, {}, {}, {}, {},
    {}, {}, {}, {}, {},
    {}, {}, {}, {}, {},
    {}, {}, {}, {}, {},
    {}, {}, {}, {}, {},
    {}, {}, {}, {}, {},
    {}, {}, {}, {}, {},
    {}, {}, {}, {}, {},
    {}, {}, {}, {}, {},
    {}, {}, {}, {}, {},
    {}, {}, {}, {}, {},
    {}, {}, {}, {}, {},
    {}, {}, {}, {}, {},
    {}, {}, {}, {}, {},
    {}, {}, {}, {}, {},
    {}, {}, {}, {}, {},
    {}, {}, {}, {}, {},
    {}, {}, {}, {}, {},
    {}, {}, {}, {}, {},
    {}, {}, {}, {}, {},
    {}, {}, {}, {}, {},
    {}, {}, {}, {}, {},
    {}, {}, {}, {}, {},
    {}, {}, {}, {}, {},
    {}, {}, {}, {}, {},
    {}, {}, {}, {}, {},
    {}, {}, {}, {}, {},
    {}, {}, {}, {}, {},
    {}, {}, {}, {}, {},
    {}, {}, {}, {}, {},
    {}, {}, {}, {}, {},
    {}, {}, {}, {}, {},
    {}, {}, {}, {}, {},
    {}, {}, {}, {}, {},
    {}, {}, {}, {}, {},
    {}, {}, {}, {}, {},
    {}, {}, {}, {}, {},
    {}, {}, {}, {}, {},
    {}, {}, {}, {}, {},
    {}, {}, {}, {}, {},
    {}, {}, {}, {}, {},
    {}, {}, {}, {}, {},
    {}, {}, {}, {}, {},
    {}, {}, {}, {}, {},
    {}, {}, {}, {}, {},
    {}, {}, {}, {}, {},
    {}, {}, {}, {}, {},
    {}, {}, {}, {}, {},
    {}, {}, {}, {}, {},
    {}, {}, {}, {}, {},
    {}, {}, {}, {}, {},
    {}, {}, {}, {}, {},
    {}, {}, {}, {}, {},
    {}, {}, {}, {}, {},
    {}, {}, {}, {}, {},
    {}, {}, {}, {}, {},
    {}, {}, {}, {}, {},
    {}, {}, {}, {}, {},
    {}, {}, {}, {}, {},
    {}, {}, {}, {}, {},
    {}, {}, {}, {}, {},
    {}, {}, {}, {}, {},
    {}, {}, {}, {}, {},
    {}, {}, {}, {}, {},
    {}, {}, {}, {}, {},
    {}, {}, {}, {}, {},
    {}, {}, {}, {}, {},
    {}, {}, {}, {}, {},
    {}, {}, {}, {}, {},
    {}, {}, {}, {}, {},
    {}, {}, {}, {}, {},
    {}, {}, {}, {}, {},
    {}, {}, {}, {}, {},
    {}, {}, {}, {}, {},
    {}, {}, {}, {}, {},
    {}, {}, {}, {}, {},
    {}, {}, {}, {}, {},
    {}, {}, {}, {}, {},

  % k = 3
    {}, {}, {}, {}, {},
    {}, {}, {}, {}, {},
    {}, {}, {}, {}, {},
    {}, {}, {}, {}, {},
    {}, {}, {}, {}, {},
    {}, {}, {}, {}, {},
    {}, {}, {}, {}, {},
    {}, {}, {}, {}, {},
    {}, {}, {}, {}, {},
    {}, {}, {}, {}, {},
    {}, {}, {}, {}, {},
    {}, {}, {}, {}, {},
    {}, {}, {}, {}, {},
    {}, {}, {}, {}, {},
    {}, {}, {}, {}, {},
    {}, {}, {}, {}, {},
    {}, {}, {}, {}, {},
    {}, {}, {}, {}, {},
    {}, {}, {}, {}, {},
    {}, {}, {}, {}, {},
    {}, {}, {}, {}, {},
    {}, {}, {}, {}, {},
    {}, {}, {}, {}, {},
    {}, {}, {}, {}, {},
    {}, {}, {}, {}, {},
    {}, {}, {}, {}, {},
    {}, {}, {}, {}, {},
    {}, {}, {}, {}, {},
    {}, {}, {}, {}, {},
    {}, {}, {}, {}, {},
    {}, {}, {}, {}, {},
    {}, {}, {}, {}, {},
    {}, {}, {}, {}, {},
    {}, {}, {}, {}, {},
    {}, {}, {}, {}, {},
    {}, {}, {}, {}, {},
    {}, {}, {}, {}, {},
    {}, {}, {}, {}, {},
    {}, {}, {}, {}, {},
    {}, {}, {}, {}, {},
    {}, {}, {}, {}, {},
    {}, {}, {}, {}, {},
    {}, {}, {}, {}, {},
    {}, {}, {}, {}, {},
    {}, {}, {}, {}, {},
    {}, {}, {}, {}, {},
    {}, {}, {}, {}, {},
    {}, {}, {}, {}, {},
    {}, {}, {}, {}, {},
    {}, {}, {}, {}, {},
    {}, {}, {}, {}, {},
    {}, {}, {}, {}, {},
    {}, {}, {}, {}, {},
    {}, {}, {}, {}, {},
    {}, {}, {}, {}, {},
    {}, {}, {}, {}, {},
    {}, {}, {}, {}, {},
    {}, {}, {}, {}, {},
    {}, {}, {}, {}, {},
    {}, {}, {}, {}, {},
    {}, {}, {}, {}, {},
    {}, {}, {}, {}, {},
    {}, {}, {}, {}, {},
    {}, {}, {}, {}, {},
    {}, {}, {}, {}, {},
    {}, {}, {}, {}, {},
    {}, {}, {}, {}, {},
    {}, {}, {}, {}, {},
    {}, {}, {}, {}, {},
    {}, {}, {}, {}, {},
    {}, {}, {}, {}, {},
    {}, {}, {}, {}, {},
    {}, {}, {}, {}, {},
    {}, {}, {}, {}, {},
    {}, {}, {}, {}, {},
    {}, {}, {}, {}, {},
    {}, {}, {}, {}, {},
    {}, {}, {}, {}, {},
    {}, {}, {}, {}, {},
    {}, {}, {}, {}, {},
    {}, {}, {}, {}, {},
    {}, {}, {}, {}, {},
    {}, {}, {}, {}, {},
    {}, {}, {}, {}, {},
    {}, {}, {}, {}, {},
    {}, {}, {}, {}, {},
    {}, {}, {}, {}, {},
    {}, {}, {}, {}, {},
    {}, {}, {}, {}, {},
    {}, {}, {}, {}, {},
    {}, {}, {}, {}, {},
    {}, {}, {}, {}, {},
    {}, {}, {}, {}, {},
    {}, {}, {}, {}, {},
    {}, {}, {}, {}, {},
    {}, {}, {}, {}, {},
    {}, {}, {}, {}, {},
    {}, {}, {}, {}, {},
    {}, {}, {}, {}, {},
    {}, {}, {}, {}, {},
    {}, {}, {}, {}, {},
    {}, {}, {}, {}, {},
    {}, {}, {}, {}, {},
    {}, {}, {}, {}, {},
    {}, {}, {}, {}, {},
    {}, {}, {}, {}, {},
    {}, {}, {}, {}, {},
    {}, {}, {}, {}, {},
    {}, {}, {}, {}, {},
    {}, {}, {}, {}, {},
    {}, {}, {}, {}, {},
    {}, {}, {}, {}, {},
    {}, {}, {}, {}, {},
    {}, {}, {}, {}, {},
    {}, {}, {}, {}, {},
    {}, {}, {}, {}, {},
    {}, {}, {}, {}, {},
    {}, {}, {}, {}, {},
    {}, {}, {}, {}, {},
    {}, {}, {}, {}, {},
    {}, {}, {}, {}, {},
    {}, {}, {}, {}, {},
    {}, {}, {}, {}, {},
    {}, {}, {}, {}, {},
    {}, {}, {}, {}, {},
    {}, {}, {}, {}, {},
    {}, {}, {}, {}, {},
    {}, {}, {}, {}, {},
    {}, {}, {}, {}, {},
    {}, {}, {}, {}, {},
    {}, {}, {}, {}, {},
    {}, {}, {}, {}, {},
    {}, {}, {}, {}, {},
    {}, {}, {}, {}, {},
    {}, {}, {}, {}, {},
    {}, {}, {}, {}, {},
    {}, {}, {}, {}, {},
    {}, {}, {}, {}, {},
    {}, {}, {}, {}, {},
    {}, {}, {}, {}, {},
    {}, {}, {}, {}, {},
    {}, {}, {}, {}, {},
    {}, {}, {}, {}, {},
    {}, {}, {}, {}, {},
    {}, {}, {}, {}, {},
    {}, {}, {}, {}, {},
    {}, {}, {}, {}, {},
    {}, {}, {}, {}, {},
    {}, {}, {}, {}, {},
    {}, {}, {}, {}, {},
    {}, {}, {}, {}, {},
    {}, {}, {}, {}, {},
    {}, {}, {}, {}, {},
    {}, {}, {}, {}, {},
    {}, {}, {}, {}, {},
    {}, {}, {}, {}, {},
    {}, {}, {}, {}, {},
    {}, {}, {}, {}, {},
    {}, {}, {}, {}, {},

  % k = 4
    {}, {}, {}, {}, {},
    {}, {}, {}, {}, {},
    {}, {}, {}, {}, {},
    {}, {}, {}, {}, {},
    {}, {}, {}, {}, {},
    {}, {}, {}, {}, {},
    {}, {}, {}, {}, {},
    {}, {}, {}, {}, {},
    {}, {}, {}, {}, {},
    {}, {}, {}, {}, {},
    {}, {}, {}, {}, {},
    {}, {}, {}, {}, {},
    {}, {}, {}, {}, {},
    {}, {}, {}, {}, {},
    {}, {}, {}, {}, {},
    {}, {}, {}, {}, {},
    {}, {}, {}, {}, {},
    {}, {}, {}, {}, {},
    {}, {}, {}, {}, {},
    {}, {}, {}, {}, {},
    {}, {}, {}, {}, {},
    {}, {}, {}, {}, {},
    {}, {}, {}, {}, {},
    {}, {}, {}, {}, {},
    {}, {}, {}, {}, {},
    {}, {}, {}, {}, {},
    {}, {}, {}, {}, {},
    {}, {}, {}, {}, {},
    {}, {}, {}, {}, {},
    {}, {}, {}, {}, {},
    {}, {}, {}, {}, {},
    {}, {}, {}, {}, {},
    {}, {}, {}, {}, {},
    {}, {}, {}, {}, {},
    {}, {}, {}, {}, {},
    {}, {}, {}, {}, {},
    {}, {}, {}, {}, {},
    {}, {}, {}, {}, {},
    {}, {}, {}, {}, {},
    {}, {}, {}, {}, {},
    {}, {}, {}, {}, {},
    {}, {}, {}, {}, {},
    {}, {}, {}, {}, {},
    {}, {}, {}, {}, {},
    {}, {}, {}, {}, {},
    {}, {}, {}, {}, {},
    {}, {}, {}, {}, {},
    {}, {}, {}, {}, {},
    {}, {}, {}, {}, {},
    {}, {}, {}, {}, {},
    {}, {}, {}, {}, {},
    {}, {}, {}, {}, {},
    {}, {}, {}, {}, {},
    {}, {}, {}, {}, {},
    {}, {}, {}, {}, {},
    {}, {}, {}, {}, {},
    {}, {}, {}, {}, {},
    {}, {}, {}, {}, {},
    {}, {}, {}, {}, {},
    {}, {}, {}, {}, {},
    {}, {}, {}, {}, {},
    {}, {}, {}, {}, {},
    {}, {}, {}, {}, {},
    {}, {}, {}, {}, {},
    {}, {}, {}, {}, {},
    {}, {}, {}, {}, {},
    {}, {}, {}, {}, {},
    {}, {}, {}, {}, {},
    {}, {}, {}, {}, {},
    {}, {}, {}, {}, {},
    {}, {}, {}, {}, {},
    {}, {}, {}, {}, {},
    {}, {}, {}, {}, {},
    {}, {}, {}, {}, {},
    {}, {}, {}, {}, {},
    {}, {}, {}, {}, {},
    {}, {}, {}, {}, {},
    {}, {}, {}, {}, {},
    {}, {}, {}, {}, {},
    {}, {}, {}, {}, {},
    {}, {}, {}, {}, {},
    {}, {}, {}, {}, {},
    {}, {}, {}, {}, {},
    {}, {}, {}, {}, {},
    {}, {}, {}, {}, {},
    {}, {}, {}, {}, {},
    {}, {}, {}, {}, {},
    {}, {}, {}, {}, {},
    {}, {}, {}, {}, {},
    {}, {}, {}, {}, {},
    {}, {}, {}, {}, {},
    {}, {}, {}, {}, {},
    {}, {}, {}, {}, {},
    {}, {}, {}, {}, {},
    {}, {}, {}, {}, {},
    {}, {}, {}, {}, {},
    {}, {}, {}, {}, {},
    {}, {}, {}, {}, {},
    {}, {}, {}, {}, {},
    {}, {}, {}, {}, {},
    {}, {}, {}, {}, {},
    {}, {}, {}, {}, {},
    {}, {}, {}, {}, {},
    {}, {}, {}, {}, {},
    {}, {}, {}, {}, {},
    {}, {}, {}, {}, {},
    {}, {}, {}, {}, {},
    {}, {}, {}, {}, {},
    {}, {}, {}, {}, {},
    {}, {}, {}, {}, {},
    {}, {}, {}, {}, {},
    {}, {}, {}, {}, {},
    {}, {}, {}, {}, {},
    {}, {}, {}, {}, {},
    {}, {}, {}, {}, {},
    {}, {}, {}, {}, {},
    {}, {}, {}, {}, {},
    {}, {}, {}, {}, {},
    {}, {}, {}, {}, {},
    {}, {}, {}, {}, {},
    {}, {}, {}, {}, {},
    {}, {}, {}, {}, {},
    {}, {}, {}, {}, {},
    {}, {}, {}, {}, {},
    {}, {}, {}, {}, {},
    {}, {}, {}, {}, {},
    {}, {}, {}, {}, {},
    {}, {}, {}, {}, {},
    {}, {}, {}, {}, {},
    {}, {}, {}, {}, {},
    {}, {}, {}, {}, {},
    {}, {}, {}, {}, {},
    {}, {}, {}, {}, {},
    {}, {}, {}, {}, {},
    {}, {}, {}, {}, {},
    {}, {}, {}, {}, {},
    {}, {}, {}, {}, {},
    {}, {}, {}, {}, {},
    {}, {}, {}, {}, {},
    {}, {}, {}, {}, {},
    {}, {}, {}, {}, {},
    {}, {}, {}, {}, {},
    {}, {}, {}, {}, {},
    {}, {}, {}, {}, {},
    {}, {}, {}, {}, {},
    {}, {}, {}, {}, {},
    {}, {}, {}, {}, {},
    {}, {}, {}, {}, {},
    {}, {}, {}, {}, {},
    {}, {}, {}, {}, {},
    {}, {}, {}, {}, {},
    {}, {}, {}, {}, {},
    {}, {}, {}, {}, {},
    {}, {}, {}, {}, {},
    {}, {}, {}, {}, {},
    {}, {}, {}, {}, {},
    {}, {}, {}, {}, {},
    {}, {}, {}, {}, {},
    {}, {}, {}, {}, {}
]);
